p edge 150 2235
e 1 7
e 1 15
e 1 19
e 1 22
e 1 34
e 1 37
e 1 38
e 1 40
e 1 43
e 1 44
e 1 51
e 1 52
e 1 55
e 1 65
e 1 69
e 1 70
e 1 81
e 1 84
e 1 85
e 1 89
e 1 108
e 1 122
e 1 123
e 1 127
e 1 134
e 1 138
e 1 141
e 1 145
e 2 9
e 2 10
e 2 16
e 2 23
e 2 24
e 2 25
e 2 27
e 2 50
e 2 61
e 2 72
e 2 76
e 2 87
e 2 88
e 2 89
e 2 100
e 2 108
e 2 109
e 2 115
e 2 116
e 2 118
e 2 119
e 2 122
e 2 134
e 2 138
e 2 139
e 2 140
e 2 143
e 2 145
e 2 149
e 3 11
e 3 22
e 3 26
e 3 33
e 3 35
e 3 51
e 3 53
e 3 60
e 3 63
e 3 68
e 3 71
e 3 74
e 3 82
e 3 85
e 3 88
e 3 89
e 3 99
e 3 112
e 3 119
e 3 120
e 3 122
e 3 125
e 3 134
e 3 148
e 3 150
e 4 10
e 4 11
e 4 25
e 4 32
e 4 33
e 4 38
e 4 39
e 4 43
e 4 45
e 4 48
e 4 59
e 4 64
e 4 83
e 4 84
e 4 86
e 4 87
e 4 93
e 4 96
e 4 98
e 4 99
e 4 111
e 4 113
e 4 118
e 4 126
e 4 127
e 4 136
e 4 141
e 4 142
e 4 143
e 5 6
e 5 9
e 5 14
e 5 20
e 5 22
e 5 25
e 5 26
e 5 36
e 5 48
e 5 52
e 5 61
e 5 62
e 5 64
e 5 69
e 5 82
e 5 84
e 5 87
e 5 98
e 5 100
e 5 104
e 5 110
e 5 111
e 5 116
e 5 123
e 5 124
e 5 137
e 6 9
e 6 13
e 6 19
e 6 20
e 6 21
e 6 22
e 6 25
e 6 31
e 6 32
e 6 33
e 6 37
e 6 38
e 6 44
e 6 45
e 6 49
e 6 56
e 6 57
e 6 73
e 6 74
e 6 75
e 6 78
e 6 79
e 6 85
e 6 93
e 6 97
e 6 103
e 6 108
e 6 111
e 6 113
e 6 114
e 6 118
e 6 120
e 6 137
e 6 140
e 6 147
e 7 8
e 7 12
e 7 18
e 7 23
e 7 32
e 7 33
e 7 43
e 7 52
e 7 53
e 7 54
e 7 55
e 7 62
e 7 64
e 7 66
e 7 73
e 7 89
e 7 96
e 7 99
e 7 103
e 7 110
e 7 114
e 7 117
e 7 122
e 7 129
e 7 148
e 8 10
e 8 14
e 8 16
e 8 17
e 8 40
e 8 41
e 8 46
e 8 52
e 8 57
e 8 59
e 8 61
e 8 62
e 8 63
e 8 64
e 8 71
e 8 73
e 8 74
e 8 76
e 8 96
e 8 100
e 8 106
e 8 116
e 8 119
e 8 122
e 8 129
e 8 133
e 8 136
e 8 139
e 8 140
e 8 141
e 8 145
e 8 149
e 9 17
e 9 36
e 9 37
e 9 41
e 9 58
e 9 60
e 9 61
e 9 62
e 9 64
e 9 74
e 9 90
e 9 97
e 9 100
e 9 107
e 9 108
e 9 110
e 9 111
e 9 122
e 9 124
e 9 131
e 9 132
e 9 135
e 10 17
e 10 24
e 10 26
e 10 30
e 10 33
e 10 41
e 10 48
e 10 51
e 10 54
e 10 58
e 10 63
e 10 65
e 10 66
e 10 67
e 10 70
e 10 75
e 10 76
e 10 89
e 10 95
e 10 99
e 10 103
e 10 109
e 10 122
e 10 123
e 10 126
e 10 128
e 10 136
e 10 138
e 10 141
e 10 149
e 11 17
e 11 27
e 11 31
e 11 33
e 11 50
e 11 52
e 11 66
e 11 68
e 11 69
e 11 70
e 11 80
e 11 84
e 11 89
e 11 94
e 11 101
e 11 104
e 11 109
e 11 111
e 11 116
e 11 124
e 11 129
e 11 134
e 11 135
e 11 141
e 11 142
e 12 14
e 12 17
e 12 23
e 12 26
e 12 43
e 12 44
e 12 49
e 12 50
e 12 52
e 12 69
e 12 80
e 12 81
e 12 82
e 12 90
e 12 97
e 12 113
e 12 120
e 12 134
e 12 135
e 12 143
e 13 18
e 13 30
e 13 42
e 13 44
e 13 47
e 13 50
e 13 52
e 13 55
e 13 56
e 13 70
e 13 71
e 13 73
e 13 80
e 13 81
e 13 84
e 13 86
e 13 87
e 13 92
e 13 97
e 13 100
e 13 125
e 14 20
e 14 22
e 14 25
e 14 27
e 14 31
e 14 36
e 14 41
e 14 43
e 14 45
e 14 47
e 14 50
e 14 57
e 14 70
e 14 80
e 14 84
e 14 91
e 14 92
e 14 108
e 14 110
e 14 121
e 14 128
e 14 132
e 14 139
e 14 146
e 14 147
e 15 16
e 15 18
e 15 25
e 15 29
e 15 35
e 15 42
e 15 45
e 15 46
e 15 48
e 15 57
e 15 69
e 15 78
e 15 81
e 15 84
e 15 102
e 15 105
e 15 106
e 15 115
e 15 117
e 15 121
e 15 123
e 15 132
e 15 135
e 15 141
e 15 148
e 16 20
e 16 29
e 16 37
e 16 42
e 16 45
e 16 52
e 16 53
e 16 56
e 16 57
e 16 66
e 16 73
e 16 81
e 16 83
e 16 84
e 16 90
e 16 94
e 16 96
e 16 98
e 16 106
e 16 107
e 16 108
e 16 113
e 16 114
e 16 117
e 16 126
e 16 139
e 16 144
e 16 146
e 16 147
e 16 150
e 17 18
e 17 19
e 17 21
e 17 23
e 17 27
e 17 28
e 17 29
e 17 31
e 17 32
e 17 37
e 17 39
e 17 42
e 17 44
e 17 58
e 17 61
e 17 64
e 17 78
e 17 88
e 17 102
e 17 105
e 17 107
e 17 108
e 17 116
e 17 128
e 17 133
e 17 138
e 17 140
e 17 142
e 17 144
e 17 145
e 17 147
e 18 21
e 18 26
e 18 40
e 18 42
e 18 43
e 18 47
e 18 53
e 18 57
e 18 59
e 18 76
e 18 78
e 18 85
e 18 89
e 18 90
e 18 91
e 18 121
e 18 141
e 18 143
e 19 48
e 19 53
e 19 63
e 19 69
e 19 74
e 19 77
e 19 78
e 19 81
e 19 85
e 19 86
e 19 88
e 19 91
e 19 94
e 19 101
e 19 102
e 19 108
e 19 109
e 19 114
e 19 117
e 19 119
e 19 121
e 19 125
e 19 126
e 19 130
e 19 131
e 19 132
e 19 133
e 19 137
e 19 143
e 20 21
e 20 22
e 20 26
e 20 30
e 20 31
e 20 34
e 20 38
e 20 47
e 20 48
e 20 51
e 20 53
e 20 54
e 20 59
e 20 62
e 20 66
e 20 89
e 20 95
e 20 104
e 20 106
e 20 108
e 20 115
e 20 119
e 20 120
e 20 124
e 20 129
e 20 136
e 20 140
e 21 31
e 21 35
e 21 38
e 21 43
e 21 44
e 21 50
e 21 51
e 21 52
e 21 60
e 21 64
e 21 75
e 21 78
e 21 87
e 21 89
e 21 93
e 21 96
e 21 98
e 21 104
e 21 114
e 21 127
e 21 148
e 21 150
e 22 24
e 22 27
e 22 32
e 22 44
e 22 52
e 22 56
e 22 58
e 22 62
e 22 63
e 22 67
e 22 70
e 22 74
e 22 82
e 22 86
e 22 94
e 22 95
e 22 102
e 22 106
e 22 107
e 22 108
e 22 109
e 22 113
e 22 114
e 22 117
e 22 118
e 22 120
e 22 121
e 22 134
e 22 138
e 22 139
e 23 24
e 23 26
e 23 30
e 23 33
e 23 35
e 23 40
e 23 43
e 23 44
e 23 49
e 23 50
e 23 63
e 23 70
e 23 73
e 23 75
e 23 77
e 23 94
e 23 105
e 23 110
e 23 115
e 23 117
e 23 127
e 23 131
e 23 138
e 23 139
e 23 143
e 23 146
e 23 150
e 24 27
e 24 31
e 24 36
e 24 37
e 24 42
e 24 60
e 24 71
e 24 74
e 24 75
e 24 77
e 24 79
e 24 86
e 24 93
e 24 95
e 24 98
e 24 111
e 24 125
e 24 127
e 24 132
e 24 134
e 24 137
e 24 145
e 24 149
e 24 150
e 25 28
e 25 30
e 25 35
e 25 36
e 25 39
e 25 44
e 25 46
e 25 53
e 25 60
e 25 61
e 25 63
e 25 98
e 25 108
e 25 112
e 25 114
e 25 120
e 25 121
e 25 122
e 25 126
e 25 128
e 25 130
e 25 133
e 25 145
e 25 150
e 26 36
e 26 37
e 26 46
e 26 49
e 26 56
e 26 63
e 26 64
e 26 66
e 26 71
e 26 72
e 26 83
e 26 92
e 26 93
e 26 96
e 26 101
e 26 102
e 26 103
e 26 105
e 26 106
e 26 111
e 26 119
e 26 120
e 26 122
e 26 127
e 26 132
e 26 133
e 26 134
e 26 135
e 26 137
e 26 138
e 26 143
e 26 144
e 26 146
e 26 148
e 27 28
e 27 35
e 27 42
e 27 47
e 27 53
e 27 55
e 27 57
e 27 58
e 27 65
e 27 84
e 27 94
e 27 99
e 27 105
e 27 106
e 27 108
e 27 109
e 27 117
e 27 125
e 27 130
e 27 135
e 27 136
e 27 146
e 27 147
e 28 43
e 28 48
e 28 54
e 28 79
e 28 84
e 28 93
e 28 97
e 28 100
e 28 112
e 28 117
e 28 118
e 28 122
e 28 126
e 28 131
e 28 140
e 28 141
e 28 142
e 28 145
e 28 147
e 28 150
e 29 42
e 29 43
e 29 49
e 29 61
e 29 71
e 29 73
e 29 80
e 29 91
e 29 95
e 29 98
e 29 101
e 29 102
e 29 105
e 29 120
e 29 122
e 29 128
e 29 129
e 29 131
e 29 136
e 29 139
e 29 140
e 29 145
e 29 147
e 29 149
e 30 31
e 30 36
e 30 43
e 30 49
e 30 55
e 30 57
e 30 70
e 30 72
e 30 73
e 30 76
e 30 77
e 30 81
e 30 82
e 30 85
e 30 86
e 30 88
e 30 89
e 30 94
e 30 103
e 30 109
e 30 114
e 30 115
e 30 122
e 30 126
e 30 127
e 30 131
e 30 135
e 30 138
e 30 144
e 31 38
e 31 39
e 31 43
e 31 51
e 31 55
e 31 58
e 31 60
e 31 63
e 31 73
e 31 75
e 31 93
e 31 111
e 31 116
e 31 121
e 31 129
e 31 137
e 31 140
e 31 142
e 32 38
e 32 41
e 32 47
e 32 51
e 32 53
e 32 78
e 32 85
e 32 91
e 32 100
e 32 101
e 32 103
e 32 104
e 32 107
e 32 109
e 32 110
e 32 116
e 32 122
e 32 123
e 32 136
e 32 138
e 32 148
e 32 149
e 33 34
e 33 38
e 33 40
e 33 41
e 33 42
e 33 49
e 33 50
e 33 52
e 33 55
e 33 59
e 33 63
e 33 64
e 33 67
e 33 69
e 33 71
e 33 76
e 33 80
e 33 83
e 33 85
e 33 109
e 33 118
e 33 135
e 33 147
e 34 49
e 34 54
e 34 56
e 34 61
e 34 65
e 34 73
e 34 74
e 34 84
e 34 85
e 34 99
e 34 103
e 34 109
e 34 111
e 34 123
e 34 131
e 34 140
e 34 144
e 34 146
e 34 148
e 35 36
e 35 39
e 35 41
e 35 52
e 35 54
e 35 61
e 35 71
e 35 82
e 35 84
e 35 91
e 35 105
e 35 110
e 35 115
e 35 116
e 35 125
e 35 129
e 35 136
e 35 144
e 36 37
e 36 38
e 36 48
e 36 50
e 36 52
e 36 57
e 36 58
e 36 61
e 36 92
e 36 93
e 36 104
e 36 109
e 36 116
e 36 120
e 36 132
e 36 134
e 36 135
e 36 142
e 36 143
e 36 146
e 36 149
e 37 40
e 37 44
e 37 46
e 37 47
e 37 48
e 37 59
e 37 62
e 37 64
e 37 65
e 37 78
e 37 83
e 37 86
e 37 87
e 37 88
e 37 94
e 37 97
e 37 102
e 37 103
e 37 115
e 37 119
e 37 120
e 37 126
e 37 137
e 37 149
e 38 39
e 38 44
e 38 60
e 38 66
e 38 71
e 38 77
e 38 86
e 38 90
e 38 91
e 38 108
e 38 121
e 38 123
e 38 128
e 38 130
e 38 134
e 38 137
e 38 142
e 38 143
e 39 42
e 39 47
e 39 60
e 39 65
e 39 77
e 39 87
e 39 88
e 39 92
e 39 93
e 39 94
e 39 95
e 39 101
e 39 102
e 39 105
e 39 108
e 39 109
e 39 113
e 39 132
e 39 134
e 39 139
e 39 142
e 39 147
e 40 41
e 40 51
e 40 57
e 40 60
e 40 61
e 40 64
e 40 68
e 40 69
e 40 72
e 40 75
e 40 81
e 40 82
e 40 94
e 40 96
e 40 97
e 40 99
e 40 115
e 40 128
e 40 129
e 40 131
e 40 132
e 40 134
e 41 43
e 41 49
e 41 56
e 41 61
e 41 65
e 41 69
e 41 72
e 41 75
e 41 77
e 41 82
e 41 87
e 41 90
e 41 92
e 41 94
e 41 98
e 41 103
e 41 110
e 41 127
e 41 128
e 41 130
e 41 145
e 41 147
e 41 148
e 42 54
e 42 55
e 42 60
e 42 87
e 42 91
e 42 95
e 42 96
e 42 103
e 42 108
e 42 112
e 42 123
e 42 125
e 42 126
e 42 132
e 42 138
e 42 142
e 42 147
e 43 47
e 43 54
e 43 58
e 43 61
e 43 63
e 43 64
e 43 67
e 43 76
e 43 83
e 43 85
e 43 92
e 43 93
e 43 96
e 43 97
e 43 100
e 43 115
e 43 121
e 43 122
e 43 126
e 43 131
e 43 135
e 43 137
e 43 139
e 43 141
e 43 148
e 44 45
e 44 47
e 44 49
e 44 53
e 44 59
e 44 69
e 44 76
e 44 77
e 44 91
e 44 98
e 44 99
e 44 100
e 44 104
e 44 107
e 44 127
e 44 132
e 44 142
e 44 145
e 44 150
e 45 46
e 45 63
e 45 68
e 45 73
e 45 82
e 45 95
e 45 97
e 45 102
e 45 111
e 45 112
e 45 129
e 45 131
e 45 133
e 45 136
e 45 138
e 45 146
e 45 148
e 46 47
e 46 52
e 46 54
e 46 60
e 46 64
e 46 72
e 46 75
e 46 78
e 46 79
e 46 112
e 46 113
e 46 116
e 46 119
e 46 123
e 46 124
e 46 127
e 46 130
e 46 131
e 46 142
e 46 146
e 47 52
e 47 62
e 47 79
e 47 80
e 47 81
e 47 82
e 47 88
e 47 89
e 47 90
e 47 93
e 47 96
e 47 109
e 47 112
e 47 116
e 47 118
e 47 121
e 47 131
e 47 132
e 47 136
e 47 141
e 48 52
e 48 56
e 48 57
e 48 59
e 48 67
e 48 73
e 48 75
e 48 79
e 48 82
e 48 90
e 48 92
e 48 96
e 48 97
e 48 98
e 48 102
e 48 104
e 48 107
e 48 114
e 48 130
e 48 138
e 48 141
e 48 145
e 48 146
e 49 50
e 49 53
e 49 57
e 49 70
e 49 72
e 49 74
e 49 78
e 49 81
e 49 83
e 49 85
e 49 89
e 49 90
e 49 92
e 49 96
e 49 104
e 49 105
e 49 108
e 49 113
e 49 120
e 49 121
e 49 123
e 49 127
e 49 133
e 49 134
e 49 136
e 49 146
e 49 147
e 50 52
e 50 61
e 50 63
e 50 67
e 50 79
e 50 82
e 50 92
e 50 99
e 50 101
e 50 107
e 50 108
e 50 114
e 50 115
e 50 125
e 50 126
e 50 128
e 50 129
e 50 130
e 50 132
e 50 138
e 50 139
e 50 143
e 50 146
e 51 60
e 51 71
e 51 73
e 51 75
e 51 80
e 51 86
e 51 88
e 51 89
e 51 92
e 51 101
e 51 102
e 51 103
e 51 106
e 51 122
e 51 123
e 51 128
e 51 130
e 51 137
e 51 143
e 51 149
e 52 53
e 52 55
e 52 59
e 52 60
e 52 64
e 52 69
e 52 79
e 52 83
e 52 85
e 52 89
e 52 90
e 52 93
e 52 96
e 52 102
e 52 108
e 52 110
e 52 115
e 52 117
e 52 127
e 52 134
e 52 144
e 52 146
e 52 149
e 53 54
e 53 61
e 53 64
e 53 65
e 53 66
e 53 67
e 53 69
e 53 71
e 53 77
e 53 82
e 53 83
e 53 92
e 53 93
e 53 106
e 53 112
e 53 118
e 53 120
e 53 127
e 53 134
e 53 139
e 53 140
e 53 141
e 53 147
e 54 63
e 54 68
e 54 71
e 54 78
e 54 79
e 54 82
e 54 87
e 54 93
e 54 97
e 54 100
e 54 101
e 54 103
e 54 104
e 54 110
e 54 111
e 54 113
e 54 115
e 54 121
e 54 124
e 54 128
e 54 137
e 54 139
e 55 58
e 55 63
e 55 66
e 55 68
e 55 69
e 55 73
e 55 81
e 55 82
e 55 91
e 55 102
e 55 103
e 55 115
e 55 118
e 55 132
e 55 136
e 55 138
e 55 147
e 55 148
e 56 57
e 56 65
e 56 71
e 56 88
e 56 93
e 56 95
e 56 97
e 56 107
e 56 119
e 56 121
e 56 124
e 56 125
e 56 131
e 56 136
e 56 141
e 56 144
e 56 149
e 57 62
e 57 68
e 57 69
e 57 75
e 57 80
e 57 81
e 57 82
e 57 85
e 57 87
e 57 89
e 57 91
e 57 93
e 57 105
e 57 114
e 57 117
e 57 119
e 57 124
e 57 125
e 57 131
e 57 135
e 57 136
e 57 137
e 57 138
e 57 139
e 57 146
e 58 61
e 58 62
e 58 64
e 58 66
e 58 67
e 58 70
e 58 76
e 58 80
e 58 82
e 58 85
e 58 91
e 58 92
e 58 94
e 58 101
e 58 102
e 58 104
e 58 118
e 58 119
e 58 121
e 58 125
e 58 130
e 58 131
e 58 132
e 58 136
e 58 137
e 58 141
e 58 147
e 59 61
e 59 64
e 59 95
e 59 97
e 59 107
e 59 119
e 59 129
e 59 137
e 59 143
e 59 146
e 60 63
e 60 69
e 60 72
e 60 76
e 60 78
e 60 82
e 60 91
e 60 92
e 60 100
e 60 103
e 60 104
e 60 113
e 60 118
e 60 121
e 60 138
e 60 140
e 60 142
e 60 145
e 61 66
e 61 72
e 61 75
e 61 81
e 61 83
e 61 84
e 61 85
e 61 86
e 61 89
e 61 92
e 61 103
e 61 105
e 61 108
e 61 110
e 61 114
e 61 116
e 61 148
e 61 149
e 61 150
e 62 66
e 62 67
e 62 70
e 62 94
e 62 96
e 62 99
e 62 102
e 62 115
e 62 124
e 62 126
e 62 131
e 62 142
e 62 143
e 63 65
e 63 71
e 63 72
e 63 74
e 63 84
e 63 85
e 63 89
e 63 95
e 63 100
e 63 107
e 63 115
e 63 120
e 63 128
e 63 146
e 63 148
e 64 81
e 64 89
e 64 90
e 64 109
e 64 118
e 64 124
e 64 127
e 64 131
e 64 133
e 64 135
e 64 138
e 64 144
e 64 149
e 65 66
e 65 68
e 65 73
e 65 82
e 65 84
e 65 85
e 65 89
e 65 100
e 65 108
e 65 125
e 65 130
e 65 132
e 65 145
e 66 69
e 66 71
e 66 75
e 66 77
e 66 81
e 66 83
e 66 94
e 66 96
e 66 103
e 66 104
e 66 105
e 66 115
e 66 119
e 66 121
e 66 122
e 66 125
e 66 133
e 66 142
e 66 144
e 66 145
e 66 150
e 67 68
e 67 72
e 67 104
e 67 107
e 67 122
e 67 132
e 67 136
e 67 141
e 67 149
e 68 71
e 68 73
e 68 86
e 68 87
e 68 97
e 68 104
e 68 106
e 68 113
e 68 116
e 68 123
e 68 124
e 68 125
e 68 129
e 68 132
e 68 139
e 68 140
e 68 141
e 69 86
e 69 96
e 69 97
e 69 98
e 69 101
e 69 110
e 69 114
e 69 117
e 69 120
e 69 124
e 69 129
e 69 136
e 69 140
e 69 149
e 70 75
e 70 101
e 70 104
e 70 110
e 70 122
e 70 135
e 70 138
e 70 140
e 70 143
e 70 146
e 70 150
e 71 75
e 71 76
e 71 85
e 71 92
e 71 102
e 71 103
e 71 107
e 71 110
e 71 119
e 71 120
e 71 121
e 71 123
e 71 135
e 71 136
e 71 149
e 72 76
e 72 79
e 72 99
e 72 100
e 72 103
e 72 104
e 72 116
e 72 126
e 72 130
e 72 135
e 72 136
e 72 143
e 72 144
e 72 150
e 73 78
e 73 79
e 73 80
e 73 83
e 73 88
e 73 90
e 73 92
e 73 96
e 73 99
e 73 102
e 73 107
e 73 114
e 73 123
e 73 128
e 73 133
e 73 134
e 73 135
e 73 137
e 73 141
e 73 146
e 74 87
e 74 90
e 74 92
e 74 93
e 74 109
e 74 112
e 74 114
e 74 115
e 74 124
e 74 125
e 74 126
e 74 134
e 74 150
e 75 77
e 75 78
e 75 79
e 75 91
e 75 103
e 75 111
e 75 113
e 75 117
e 75 118
e 75 119
e 75 126
e 75 130
e 75 138
e 75 142
e 75 147
e 75 148
e 76 77
e 76 79
e 76 80
e 76 81
e 76 83
e 76 87
e 76 98
e 76 103
e 76 104
e 76 107
e 76 110
e 76 113
e 76 115
e 76 120
e 76 123
e 76 129
e 76 135
e 76 137
e 76 139
e 76 141
e 76 142
e 76 144
e 76 149
e 77 78
e 77 81
e 77 83
e 77 84
e 77 96
e 77 99
e 77 102
e 77 105
e 77 106
e 77 107
e 77 111
e 77 114
e 77 115
e 77 124
e 77 128
e 77 129
e 77 135
e 77 144
e 77 149
e 78 83
e 78 86
e 78 87
e 78 94
e 78 112
e 78 116
e 78 121
e 78 122
e 78 125
e 78 137
e 78 138
e 78 145
e 78 148
e 78 150
e 79 82
e 79 84
e 79 88
e 79 96
e 79 99
e 79 102
e 79 105
e 79 108
e 79 111
e 79 116
e 79 118
e 79 119
e 79 136
e 79 137
e 79 139
e 80 81
e 80 87
e 80 91
e 80 92
e 80 94
e 80 97
e 80 101
e 80 104
e 80 108
e 80 109
e 80 115
e 80 138
e 80 141
e 80 142
e 80 144
e 80 149
e 81 85
e 81 86
e 81 88
e 81 94
e 81 98
e 81 100
e 81 107
e 81 113
e 81 114
e 81 116
e 81 117
e 81 128
e 81 129
e 81 131
e 81 143
e 81 146
e 82 89
e 82 102
e 82 107
e 82 109
e 82 110
e 82 111
e 82 115
e 82 118
e 82 123
e 82 124
e 82 126
e 82 128
e 82 129
e 82 132
e 82 138
e 82 139
e 82 143
e 82 144
e 82 145
e 83 88
e 83 101
e 83 108
e 83 111
e 83 114
e 83 119
e 83 121
e 83 127
e 83 136
e 84 92
e 84 94
e 84 105
e 84 108
e 84 109
e 84 115
e 84 116
e 84 117
e 84 121
e 84 130
e 84 132
e 84 149
e 85 86
e 85 93
e 85 95
e 85 98
e 85 107
e 85 110
e 85 119
e 85 125
e 85 133
e 86 90
e 86 91
e 86 92
e 86 98
e 86 99
e 86 101
e 86 116
e 86 121
e 86 123
e 86 128
e 86 133
e 86 137
e 86 145
e 86 150
e 87 89
e 87 92
e 87 98
e 87 99
e 87 100
e 87 104
e 87 107
e 87 108
e 87 110
e 87 114
e 87 119
e 87 122
e 87 123
e 87 141
e 88 92
e 88 101
e 88 117
e 88 121
e 88 122
e 88 123
e 88 124
e 88 125
e 88 127
e 88 134
e 88 145
e 89 96
e 89 102
e 89 103
e 89 104
e 89 108
e 89 109
e 89 118
e 89 123
e 89 130
e 89 131
e 89 133
e 89 141
e 89 143
e 90 93
e 90 95
e 90 98
e 90 108
e 90 109
e 90 114
e 90 115
e 90 119
e 90 120
e 90 126
e 90 138
e 90 144
e 90 145
e 90 146
e 90 148
e 91 99
e 91 101
e 91 103
e 91 104
e 91 106
e 91 113
e 91 121
e 91 123
e 91 125
e 91 128
e 91 131
e 91 133
e 91 134
e 91 141
e 92 97
e 92 99
e 92 104
e 92 126
e 92 127
e 92 131
e 92 137
e 92 141
e 93 95
e 93 99
e 93 102
e 93 104
e 93 110
e 93 111
e 93 112
e 93 115
e 93 118
e 93 122
e 93 124
e 93 130
e 93 137
e 93 144
e 94 97
e 94 98
e 94 115
e 94 117
e 94 124
e 94 125
e 94 126
e 94 128
e 94 130
e 94 132
e 94 134
e 94 135
e 94 136
e 94 139
e 94 143
e 95 100
e 95 102
e 95 104
e 95 110
e 95 114
e 95 117
e 95 121
e 95 129
e 95 131
e 95 132
e 95 142
e 95 148
e 96 99
e 96 108
e 96 110
e 96 113
e 96 114
e 96 137
e 96 149
e 97 109
e 97 119
e 97 126
e 97 132
e 97 137
e 97 138
e 97 140
e 97 146
e 97 149
e 98 104
e 98 107
e 98 108
e 98 109
e 98 117
e 98 122
e 98 127
e 98 129
e 98 132
e 98 137
e 98 138
e 98 140
e 99 100
e 99 101
e 99 107
e 99 108
e 99 112
e 99 113
e 99 118
e 99 121
e 99 134
e 99 139
e 99 143
e 99 146
e 99 147
e 100 103
e 100 109
e 100 117
e 100 122
e 100 135
e 100 147
e 100 148
e 101 102
e 101 103
e 101 104
e 101 106
e 101 109
e 101 116
e 101 121
e 101 132
e 101 139
e 101 143
e 101 148
e 101 149
e 102 104
e 102 105
e 102 117
e 102 122
e 102 123
e 102 126
e 102 131
e 102 135
e 102 140
e 102 142
e 102 146
e 103 104
e 103 115
e 103 122
e 103 123
e 103 124
e 103 138
e 103 140
e 103 141
e 103 149
e 104 106
e 104 110
e 104 114
e 104 121
e 104 124
e 104 125
e 104 127
e 104 134
e 104 136
e 104 139
e 104 144
e 104 149
e 105 107
e 105 109
e 105 113
e 105 114
e 105 117
e 105 123
e 105 124
e 105 129
e 105 137
e 105 139
e 106 107
e 106 115
e 106 126
e 106 129
e 106 136
e 106 139
e 106 144
e 106 146
e 106 148
e 106 149
e 106 150
e 107 109
e 107 115
e 107 116
e 107 117
e 107 127
e 107 128
e 107 130
e 107 131
e 107 135
e 107 138
e 107 145
e 108 115
e 108 116
e 108 120
e 108 131
e 108 133
e 108 137
e 108 141
e 108 142
e 108 149
e 109 113
e 109 116
e 109 121
e 109 125
e 109 128
e 109 130
e 109 149
e 110 115
e 110 125
e 110 133
e 110 134
e 110 144
e 110 146
e 111 119
e 111 121
e 111 122
e 111 127
e 111 128
e 111 136
e 111 144
e 111 146
e 112 116
e 112 123
e 112 135
e 112 136
e 112 139
e 112 147
e 113 119
e 113 125
e 113 128
e 113 130
e 113 131
e 113 134
e 113 146
e 113 150
e 114 129
e 114 136
e 114 144
e 114 146
e 114 147
e 114 150
e 115 118
e 115 121
e 115 127
e 115 128
e 115 129
e 115 137
e 115 144
e 115 148
e 115 149
e 116 120
e 116 121
e 116 123
e 116 125
e 116 128
e 116 134
e 116 141
e 116 149
e 117 118
e 117 121
e 117 125
e 117 127
e 117 136
e 117 139
e 117 141
e 117 144
e 117 146
e 117 147
e 117 150
e 118 119
e 118 121
e 118 124
e 118 136
e 118 139
e 118 145
e 118 148
e 118 150
e 119 128
e 119 129
e 119 130
e 119 133
e 119 144
e 120 122
e 120 123
e 120 133
e 120 137
e 120 146
e 120 147
e 121 122
e 121 125
e 121 131
e 121 135
e 121 139
e 121 142
e 121 143
e 122 131
e 122 133
e 122 139
e 122 141
e 123 124
e 123 125
e 123 126
e 123 127
e 123 130
e 123 132
e 123 133
e 123 139
e 123 143
e 124 127
e 124 132
e 124 133
e 124 136
e 124 137
e 124 147
e 124 149
e 125 131
e 125 132
e 125 135
e 125 138
e 125 144
e 125 149
e 126 129
e 126 130
e 126 131
e 126 132
e 126 138
e 126 141
e 126 148
e 127 128
e 127 129
e 127 136
e 127 138
e 127 139
e 127 149
e 128 130
e 128 131
e 128 133
e 128 135
e 128 140
e 128 145
e 128 147
e 128 150
e 129 149
e 130 132
e 130 135
e 130 136
e 130 137
e 130 141
e 130 143
e 130 146
e 130 147
e 130 148
e 130 149
e 131 136
e 131 139
e 131 140
e 131 144
e 131 145
e 131 147
e 131 150
e 132 135
e 132 147
e 133 140
e 133 142
e 134 136
e 134 137
e 134 141
e 135 139
e 135 140
e 136 139
e 136 144
e 136 150
e 137 145
e 137 150
e 138 140
e 138 148
e 138 150
e 139 144
e 141 144
e 141 148
e 141 150
e 142 147
e 144 150
e 146 150
